1 181 67 195 200 83 61 167 43 140 119 79 175 7 41 131 77 19 87 160 126 189 37 90 137 155 108 107 196 38 40 39 187 123 103 153 5 169 59 30 68 20 152 174 94 64 144 111 56 146 170 117 17 145 105 185 101 69 106 125 176 164 197 22 198 74 191 15 4 92 76 110 194 199 165 16 52 73 127 11 116 35 8 25 172 65 2 72 166 21 78 138 148 180 45 130 28 26 34 124 46 93 128 156 97 62 171 50 173 32 168 98 159 139 112 14 27 162 183 89 163 70 114 141 13 96 149 53 151 178 63 33 36 55 190 48 136 95 188 91 186 6 29 49 184 57 23 135 150 193 81 51 31 143 122 120 42 44 58 102 54 88 24 129 182 100 177 192 18 3 113 82 201 115 104 121 75 133 86 157 158 132 99 9 118 142 147 179 109 85 66 71 84 10 47 161 154 80 12 134 60
1360.0
